Problem:    magazzinoAutomatico
Rows:       152
Columns:    209 (209 integer, 209 binary)
Non-zeros:  1309
Status:     INTEGER OPTIMAL
Objective:  z = 219.2437912 (MINimum)

   No.   Row name        Activity     Lower bound   Upper bound
------ ------------    ------------- ------------- -------------
     1 IndegreeP[1]                1             1             = 
     2 IndegreeP[2]                1             1             = 
     3 IndegreeP[3]                1             1             = 
     4 IndegreeP[4]                1             1             = 
     5 IndegreeP[5]                1             1             = 
     6 IndegreeP[6]                1             1             = 
     7 IndegreeP[7]                1             1             = 
     8 OutdegreeP[1]
                                   1             1             = 
     9 OutdegreeP[2]
                                   1             1             = 
    10 OutdegreeP[3]
                                   1             1             = 
    11 OutdegreeP[4]
                                   1             1             = 
    12 OutdegreeP[5]
                                   1             1             = 
    13 OutdegreeP[6]
                                   1             1             = 
    14 OutdegreeP[7]
                                   1             1             = 
    15 IndegreeD[1]                1             1             = 
    16 IndegreeD[2]                1             1             = 
    17 IndegreeD[3]                1             1             = 
    18 IndegreeD[4]                1             1             = 
    19 IndegreeD[5]                1             1             = 
    20 IndegreeD[6]                1             1             = 
    21 IndegreeD[7]                1             1             = 
    22 IndegreeD[8]                1             1             = 
    23 IndegreeD[9]                1             1             = 
    24 OutdegreeD[1]
                                   1             1             = 
    25 OutdegreeD[2]
                                   1             1             = 
    26 OutdegreeD[3]
                                   1             1             = 
    27 OutdegreeD[4]
                                   1             1             = 
    28 OutdegreeD[5]
                                   1             1             = 
    29 OutdegreeD[6]
                                   1             1             = 
    30 OutdegreeD[7]
                                   1             1             = 
    31 OutdegreeD[8]
                                   1             1             = 
    32 OutdegreeD[9]
                                   1             1             = 
    33 No3P[1,2,3]                 0                           1 
    34 No3P[1,2,4]                 0                           1 
    35 No3P[1,2,5]                 0                           1 
    36 No3P[1,2,6]                 1                           1 
    37 No3P[1,2,7]                 0                           1 
    38 No3P[1,3,4]                 1                           1 
    39 No3P[1,3,5]                 0                           1 
    40 No3P[1,3,6]                 0                           1 
    41 No3P[1,3,7]                 0                           1 
    42 No3P[1,4,5]                 0                           1 
    43 No3P[1,4,6]                 0                           1 
    44 No3P[1,4,7]                 0                           1 
    45 No3P[1,5,6]                 0                           1 
    46 No3P[1,5,7]                 1                           1 
    47 No3P[1,6,7]                 0                           1 
    48 No3P[2,3,4]                 1                           1 
    49 No3P[2,3,5]                 0                           1 
    50 No3P[2,3,6]                 1                           1 
    51 No3P[2,3,7]                 0                           1 
    52 No3P[2,4,5]                 0                           1 
    53 No3P[2,4,6]                 1                           1 
    54 No3P[2,4,7]                 0                           1 
    55 No3P[2,5,6]                 1                           1 
    56 No3P[2,5,7]                 1                           1 
    57 No3P[2,6,7]                 1                           1 
    58 No3P[3,4,5]                 1                           1 
    59 No3P[3,4,6]                 1                           1 
    60 No3P[3,4,7]                 1                           1 
    61 No3P[3,5,6]                 0                           1 
    62 No3P[3,5,7]                 1                           1 
    63 No3P[3,6,7]                 0                           1 
    64 No3P[4,5,6]                 0                           1 
    65 No3P[4,5,7]                 1                           1 
    66 No3P[4,6,7]                 0                           1 
    67 No3P[5,6,7]                 1                           1 
    68 No3D[1,2,3]                 0                           1 
    69 No3D[1,2,4]                 0                           1 
    70 No3D[1,2,5]                 0                           1 
    71 No3D[1,2,6]                 0                           1 
    72 No3D[1,2,7]                 0                           1 
    73 No3D[1,2,8]                 1                           1 
    74 No3D[1,2,9]                 0                           1 
    75 No3D[1,3,4]                 0                           1 
    76 No3D[1,3,5]                 0                           1 
    77 No3D[1,3,6]                 0                           1 
    78 No3D[1,3,7]                 0                           1 
    79 No3D[1,3,8]                 1                           1 
    80 No3D[1,3,9]                 1                           1 
    81 No3D[1,4,5]                 0                           1 
    82 No3D[1,4,6]                 1                           1 
    83 No3D[1,4,7]                 0                           1 
    84 No3D[1,4,8]                 1                           1 
    85 No3D[1,4,9]                 0                           1 
    86 No3D[1,5,6]                 0                           1 
    87 No3D[1,5,7]                 1                           1 
    88 No3D[1,5,8]                 1                           1 
    89 No3D[1,5,9]                 0                           1 
    90 No3D[1,6,7]                 0                           1 
    91 No3D[1,6,8]                 1                           1 
    92 No3D[1,6,9]                 0                           1 
    93 No3D[1,7,8]                 1                           1 
    94 No3D[1,7,9]                 0                           1 
    95 No3D[1,8,9]                 1                           1 
    96 No3D[2,3,4]                 0                           1 
    97 No3D[2,3,5]                 0                           1 
    98 No3D[2,3,6]                 0                           1 
    99 No3D[2,3,7]                 0                           1 
   100 No3D[2,3,8]                 0                           1 
   101 No3D[2,3,9]                 1                           1 
   102 No3D[2,4,5]                 0                           1 
   103 No3D[2,4,6]                 1                           1 
   104 No3D[2,4,7]                 0                           1 
   105 No3D[2,4,8]                 0                           1 
   106 No3D[2,4,9]                 0                           1 
   107 No3D[2,5,6]                 0                           1 
   108 No3D[2,5,7]                 1                           1 
   109 No3D[2,5,8]                 0                           1 
   110 No3D[2,5,9]                 0                           1 
   111 No3D[2,6,7]                 0                           1 
   112 No3D[2,6,8]                 0                           1 
   113 No3D[2,6,9]                 0                           1 
   114 No3D[2,7,8]                 0                           1 
   115 No3D[2,7,9]                 0                           1 
   116 No3D[2,8,9]                 0                           1 
   117 No3D[3,4,5]                 0                           1 
   118 No3D[3,4,6]                 1                           1 
   119 No3D[3,4,7]                 0                           1 
   120 No3D[3,4,8]                 0                           1 
   121 No3D[3,4,9]                 1                           1 
   122 No3D[3,5,6]                 0                           1 
   123 No3D[3,5,7]                 1                           1 
   124 No3D[3,5,8]                 0                           1 
   125 No3D[3,5,9]                 1                           1 
   126 No3D[3,6,7]                 0                           1 
   127 No3D[3,6,8]                 0                           1 
   128 No3D[3,6,9]                 1                           1 
   129 No3D[3,7,8]                 0                           1 
   130 No3D[3,7,9]                 1                           1 
   131 No3D[3,8,9]                 1                           1 
   132 No3D[4,5,6]                 1                           1 
   133 No3D[4,5,7]                 1                           1 
   134 No3D[4,5,8]                 0                           1 
   135 No3D[4,5,9]                 0                           1 
   136 No3D[4,6,7]                 1                           1 
   137 No3D[4,6,8]                 1                           1 
   138 No3D[4,6,9]                 1                           1 
   139 No3D[4,7,8]                 0                           1 
   140 No3D[4,7,9]                 0                           1 
   141 No3D[4,8,9]                 0                           1 
   142 No3D[5,6,7]                 1                           1 
   143 No3D[5,6,8]                 0                           1 
   144 No3D[5,6,9]                 0                           1 
   145 No3D[5,7,8]                 1                           1 
   146 No3D[5,7,9]                 1                           1 
   147 No3D[5,8,9]                 0                           1 
   148 No3D[6,7,8]                 0                           1 
   149 No3D[6,7,9]                 0                           1 
   150 No3D[6,8,9]                 0                           1 
   151 No3D[7,8,9]                 0                           1 
   152 z                     219.244                             

   No. Column name       Activity     Lower bound   Upper bound
------ ------------    ------------- ------------- -------------
     1 xoP[1]       *              0             0             1 
     2 xoP[2]       *              0             0             1 
     3 xoP[3]       *              0             0             1 
     4 xoP[4]       *              0             0             1 
     5 xoP[5]       *              0             0             1 
     6 xoP[6]       *              0             0             1 
     7 xoP[7]       *              0             0             1 
     8 xoD[1]       *              1             0             1 
     9 xoD[2]       *              1             0             1 
    10 xoD[3]       *              1             0             1 
    11 xoD[4]       *              0             0             1 
    12 xoD[5]       *              0             0             1 
    13 xoD[6]       *              1             0             1 
    14 xoD[7]       *              1             0             1 
    15 xoD[8]       *              0             0             1 
    16 xoD[9]       *              0             0             1 
    17 xPo[1]       *              1             0             1 
    18 xPo[2]       *              1             0             1 
    19 xPo[3]       *              1             0             1 
    20 xPo[4]       *              0             0             1 
    21 xPo[5]       *              0             0             1 
    22 xPo[6]       *              0             0             1 
    23 xPo[7]       *              1             0             1 
    24 xDo[1]       *              0             0             1 
    25 xDo[2]       *              1             0             1 
    26 xDo[3]       *              0             0             1 
    27 xDo[4]       *              0             0             1 
    28 xDo[5]       *              0             0             1 
    29 xDo[6]       *              0             0             1 
    30 xDo[7]       *              0             0             1 
    31 xDo[8]       *              0             0             1 
    32 xDo[9]       *              0             0             1 
    33 xPP[2,1]     *              0             0             1 
    34 xPP[3,1]     *              0             0             1 
    35 xPP[4,1]     *              0             0             1 
    36 xPP[5,1]     *              0             0             1 
    37 xPP[6,1]     *              0             0             1 
    38 xPP[7,1]     *              0             0             1 
    39 xPP[1,2]     *              0             0             1 
    40 xPP[3,2]     *              0             0             1 
    41 xPP[4,2]     *              0             0             1 
    42 xPP[5,2]     *              0             0             1 
    43 xPP[6,2]     *              1             0             1 
    44 xPP[7,2]     *              0             0             1 
    45 xPP[1,3]     *              0             0             1 
    46 xPP[2,3]     *              0             0             1 
    47 xPP[4,3]     *              1             0             1 
    48 xPP[5,3]     *              0             0             1 
    49 xPP[6,3]     *              0             0             1 
    50 xPP[7,3]     *              0             0             1 
    51 xPP[1,4]     *              0             0             1 
    52 xPP[2,4]     *              0             0             1 
    53 xPP[3,4]     *              0             0             1 
    54 xPP[5,4]     *              0             0             1 
    55 xPP[6,4]     *              0             0             1 
    56 xPP[7,4]     *              0             0             1 
    57 xPP[1,5]     *              0             0             1 
    58 xPP[2,5]     *              0             0             1 
    59 xPP[3,5]     *              0             0             1 
    60 xPP[4,5]     *              0             0             1 
    61 xPP[6,5]     *              0             0             1 
    62 xPP[7,5]     *              0             0             1 
    63 xPP[1,6]     *              0             0             1 
    64 xPP[2,6]     *              0             0             1 
    65 xPP[3,6]     *              0             0             1 
    66 xPP[4,6]     *              0             0             1 
    67 xPP[5,6]     *              0             0             1 
    68 xPP[7,6]     *              0             0             1 
    69 xPP[1,7]     *              0             0             1 
    70 xPP[2,7]     *              0             0             1 
    71 xPP[3,7]     *              0             0             1 
    72 xPP[4,7]     *              0             0             1 
    73 xPP[5,7]     *              1             0             1 
    74 xPP[6,7]     *              0             0             1 
    75 xDP[1,1]     *              0             0             1 
    76 xDP[2,1]     *              0             0             1 
    77 xDP[3,1]     *              0             0             1 
    78 xDP[4,1]     *              0             0             1 
    79 xDP[5,1]     *              1             0             1 
    80 xDP[6,1]     *              0             0             1 
    81 xDP[7,1]     *              0             0             1 
    82 xDP[8,1]     *              0             0             1 
    83 xDP[9,1]     *              0             0             1 
    84 xDP[1,2]     *              0             0             1 
    85 xDP[2,2]     *              0             0             1 
    86 xDP[3,2]     *              0             0             1 
    87 xDP[4,2]     *              0             0             1 
    88 xDP[5,2]     *              0             0             1 
    89 xDP[6,2]     *              0             0             1 
    90 xDP[7,2]     *              0             0             1 
    91 xDP[8,2]     *              0             0             1 
    92 xDP[9,2]     *              0             0             1 
    93 xDP[1,3]     *              0             0             1 
    94 xDP[2,3]     *              0             0             1 
    95 xDP[3,3]     *              0             0             1 
    96 xDP[4,3]     *              0             0             1 
    97 xDP[5,3]     *              0             0             1 
    98 xDP[6,3]     *              0             0             1 
    99 xDP[7,3]     *              0             0             1 
   100 xDP[8,3]     *              0             0             1 
   101 xDP[9,3]     *              0             0             1 
   102 xDP[1,4]     *              0             0             1 
   103 xDP[2,4]     *              0             0             1 
   104 xDP[3,4]     *              0             0             1 
   105 xDP[4,4]     *              0             0             1 
   106 xDP[5,4]     *              0             0             1 
   107 xDP[6,4]     *              0             0             1 
   108 xDP[7,4]     *              0             0             1 
   109 xDP[8,4]     *              0             0             1 
   110 xDP[9,4]     *              1             0             1 
   111 xDP[1,5]     *              0             0             1 
   112 xDP[2,5]     *              0             0             1 
   113 xDP[3,5]     *              0             0             1 
   114 xDP[4,5]     *              1             0             1 
   115 xDP[5,5]     *              0             0             1 
   116 xDP[6,5]     *              0             0             1 
   117 xDP[7,5]     *              0             0             1 
   118 xDP[8,5]     *              0             0             1 
   119 xDP[9,5]     *              0             0             1 
   120 xDP[1,6]     *              0             0             1 
   121 xDP[2,6]     *              0             0             1 
   122 xDP[3,6]     *              0             0             1 
   123 xDP[4,6]     *              0             0             1 
   124 xDP[5,6]     *              0             0             1 
   125 xDP[6,6]     *              0             0             1 
   126 xDP[7,6]     *              0             0             1 
   127 xDP[8,6]     *              1             0             1 
   128 xDP[9,6]     *              0             0             1 
   129 xDP[1,7]     *              0             0             1 
   130 xDP[2,7]     *              0             0             1 
   131 xDP[3,7]     *              0             0             1 
   132 xDP[4,7]     *              0             0             1 
   133 xDP[5,7]     *              0             0             1 
   134 xDP[6,7]     *              0             0             1 
   135 xDP[7,7]     *              0             0             1 
   136 xDP[8,7]     *              0             0             1 
   137 xDP[9,7]     *              0             0             1 
   138 xDD[2,1]     *              0             0             1 
   139 xDD[3,1]     *              0             0             1 
   140 xDD[4,1]     *              0             0             1 
   141 xDD[5,1]     *              0             0             1 
   142 xDD[6,1]     *              0             0             1 
   143 xDD[7,1]     *              0             0             1 
   144 xDD[8,1]     *              0             0             1 
   145 xDD[9,1]     *              0             0             1 
   146 xDD[1,2]     *              0             0             1 
   147 xDD[3,2]     *              0             0             1 
   148 xDD[4,2]     *              0             0             1 
   149 xDD[5,2]     *              0             0             1 
   150 xDD[6,2]     *              0             0             1 
   151 xDD[7,2]     *              0             0             1 
   152 xDD[8,2]     *              0             0             1 
   153 xDD[9,2]     *              0             0             1 
   154 xDD[1,3]     *              0             0             1 
   155 xDD[2,3]     *              0             0             1 
   156 xDD[4,3]     *              0             0             1 
   157 xDD[5,3]     *              0             0             1 
   158 xDD[6,3]     *              0             0             1 
   159 xDD[7,3]     *              0             0             1 
   160 xDD[8,3]     *              0             0             1 
   161 xDD[9,3]     *              0             0             1 
   162 xDD[1,4]     *              0             0             1 
   163 xDD[2,4]     *              0             0             1 
   164 xDD[3,4]     *              0             0             1 
   165 xDD[5,4]     *              0             0             1 
   166 xDD[6,4]     *              1             0             1 
   167 xDD[7,4]     *              0             0             1 
   168 xDD[8,4]     *              0             0             1 
   169 xDD[9,4]     *              0             0             1 
   170 xDD[1,5]     *              0             0             1 
   171 xDD[2,5]     *              0             0             1 
   172 xDD[3,5]     *              0             0             1 
   173 xDD[4,5]     *              0             0             1 
   174 xDD[6,5]     *              0             0             1 
   175 xDD[7,5]     *              1             0             1 
   176 xDD[8,5]     *              0             0             1 
   177 xDD[9,5]     *              0             0             1 
   178 xDD[1,6]     *              0             0             1 
   179 xDD[2,6]     *              0             0             1 
   180 xDD[3,6]     *              0             0             1 
   181 xDD[4,6]     *              0             0             1 
   182 xDD[5,6]     *              0             0             1 
   183 xDD[7,6]     *              0             0             1 
   184 xDD[8,6]     *              0             0             1 
   185 xDD[9,6]     *              0             0             1 
   186 xDD[1,7]     *              0             0             1 
   187 xDD[2,7]     *              0             0             1 
   188 xDD[3,7]     *              0             0             1 
   189 xDD[4,7]     *              0             0             1 
   190 xDD[5,7]     *              0             0             1 
   191 xDD[6,7]     *              0             0             1 
   192 xDD[8,7]     *              0             0             1 
   193 xDD[9,7]     *              0             0             1 
   194 xDD[1,8]     *              1             0             1 
   195 xDD[2,8]     *              0             0             1 
   196 xDD[3,8]     *              0             0             1 
   197 xDD[4,8]     *              0             0             1 
   198 xDD[5,8]     *              0             0             1 
   199 xDD[6,8]     *              0             0             1 
   200 xDD[7,8]     *              0             0             1 
   201 xDD[9,8]     *              0             0             1 
   202 xDD[1,9]     *              0             0             1 
   203 xDD[2,9]     *              0             0             1 
   204 xDD[3,9]     *              1             0             1 
   205 xDD[4,9]     *              0             0             1 
   206 xDD[5,9]     *              0             0             1 
   207 xDD[6,9]     *              0             0             1 
   208 xDD[7,9]     *              0             0             1 
   209 xDD[8,9]     *              0             0             1 

Integer feasibility conditions:

KKT.PE: max.abs.err = 0.00e+000 on row 0
        max.rel.err = 0.00e+000 on row 0
        High quality

KKT.PB: max.abs.err = 0.00e+000 on row 0
        max.rel.err = 0.00e+000 on row 0
        High quality

End of output
